3 44
3 42
3 39
3 42
3 40
3 45
3 40
3 42
3 42
3 42
3 40
3 43
3 42
3 41
3 40
3 40
3 40
3 39
3 39
3 40
3 37
3 40
3 42
3 40
3 40
3 39
3 41
3 42
3 42
3 37
3 41
3 42
3 41
3 39
3 39
3 41
3 42
3 42
3 42
3 40
3 40
3 41
3 38
3 39
3 43
3 40
3 42
3 42
3 37
3 40
3 37
